Route #1: 56 102 33 9 101 4 24 103 25 69
Route #2: 40 47 48 82 107 57 13 23
Route #3: 6 77 11 85 51 89 46 5
Route #4: 52 50 39 28 31 17 95 59 27
Route #5: 80 93 104 60 61 22 83 76 55 30
Route #6: 105 20 92 97 42 106 34 45 67
Route #7: 68 54 96 88 75 21 41 12 58
Route #8: 19 63 72 10 86 100 62 8 49
Route #9: 99 65 36 64 43 2 71
Route #10: 109 18 84 87 26 53 15 66 98
Route #11: 73 35 7 37 94 81 44 70
Route #12: 79 32 74 78 29 16 90 1
Route #13: 14 3 108 38 91
